SimulationType        MonteCarlo
NumberOfCycles        25000
PrintEvery            1000
PrintPropertiesEvery  1000

Forcefield            GarciaPerez2006

Box 0
BoxLengths 30 30 30
ExternalTemperature 77.0

Component 0 MoleculeName              N2
            MoleculeDefinition        TraPPE
            WidomProbability          1.0
            CreateNumberOfMolecules   0

