SimulationType                   MC
NumberOfCycles                   0
NumberOfInitializationCycles     0
PrintEvery                       100
RestartFile                      no

Forcefield                       GenericMOFs
ChargeMethod                     Coulomb
CutOff                           12.0

ChargeFromChargeEquilibration    yes
ChargeEquilibrationPeriodic      yes
ChargeEquilibrationEwald         yes
SymmetrizeFrameworkCharges       no

Framework           0
FrameworkName       JUC-597_hea_net_exp_charge
UnitCells           1 1 1
ExternalTemperature 298.0
ExternalPressure    0.0
InputFileType       cif
