SimulationType        MonteCarlo
NumberOfCycles        100000
PrintEvery            1000
PrintPropertiesEvery  1000

Forcefield            GenericMOFs

Framework 0
FrameworkName IRMOF-14
UnitCells 1 1 1
ExternalTemperature 298.0

Component 0 MoleculeName             helium
            MoleculeDefinition       TraPPE
            WidomProbability         1.0
            CreateNumberOfMolecules  0

