SimulationType        MonteCarlo
NumberOfCycles        500000
PrintEvery            1000
PrintPropertiesEvery  1000

Forcefield            GenericMOFs

Framework 0
FrameworkName COF-1
UnitCells 2 2 4
ExternalTemperature 298.0

Component 0 MoleculeName             helium
            MoleculeDefinition       TraPPE
            WidomProbability         1.0
            CreateNumberOfMolecules  0

