SimulationType        MonteCarlo
NumberOfCycles        10000
PrintEvery            1000
PrintPropertiesEvery  1000

Forcefield            GenericMOFs

Framework 0
FrameworkName NU-100SP-primitive
UnitCells 4 2 2
ExternalTemperature 298.0

Component 0 MoleculeName             helium
            MoleculeDefinition       TraPPE
            WidomProbability         1.0
            CreateNumberOfMolecules  0

