SimulationType        MonteCarlo
NumberOfCycles        10000
PrintEvery            100
PrintPropertiesEvery  100

Forcefield Dzubak2012-ZnMOF-74
CutOff 12.8

Framework 0
FrameworkName ZnMOF-74
UnitCells 1 1 1
SurfaceAreaProbeDistance Minimum

Component 0 MoleculeName             N2
            StartingBead             0
            MoleculeDefinition       TraPPE
            SurfaceAreaProbability   1.0
            CreateNumberOfMolecules  0


